91 72 49 58 92 38 87 12 73 52 9 56 65 81 103 77 94 89 29 95 79 116 24 15 100 31 17 34 27 19 43 104 107 127 1 41 39 71 130 50 2 54 35 4 106 53 120 60 51 42 44 93 37 47 40 122 55 6 102 10 14 67 13 96 23 22 33 21 46 20 118 80 18 8 108 114 126 121 78 66 85 125 90 59 30 83 3 117 112 115 28 62 105 128 16 45 5 11 76 109 61 129 124 64 69 86 88 26 7 97 70 63 68 110 98 48 25 113 32 36 84 119 111 123 101 82 57 75 74 99 